
Gurobi 11.0.1 (win64) logging started Thu May 16 19:20:45 2024

Set parameter LogFile to value "output/solver_log13.txt"
Gurobi Optimizer version 11.0.1 build v11.0.1rc0 (win64 - Windows 11.0 (22631.2))

CPU model: 11th Gen Intel(R) Core(TM) i7-1165G7 @ 2.80GHz, instruction set [SSE2|AVX|AVX2|AVX512]
Thread count: 4 physical cores, 8 logical processors, using up to 8 threads

Optimize a model with 3962 rows, 957 columns and 71410 nonzeros
Model fingerprint: 0xf23a4f00
Variable types: 568 continuous, 389 integer (389 binary)
Coefficient statistics:
  Matrix range     [4e-01, 1e+05]
  Objective range  [1e+00, 1e+02]
  Bounds range     [1e+00, 1e+00]
  RHS range        [1e-02, 1e+05]

User MIP start produced solution with objective 93621.4 (0.01s)
User MIP start produced solution with objective 93621.4 (0.01s)
Loaded user MIP start with objective 93621.4

Presolve removed 263 rows and 209 columns
Presolve time: 0.12s
Presolved: 3699 rows, 748 columns, 69078 nonzeros
Variable types: 518 continuous, 230 integer (229 binary)

Root relaxation: objective 9.367924e+04, 1137 iterations, 0.05 seconds (0.10 work units)

    Nodes    |    Current Node    |     Objective Bounds      |     Work
 Expl Unexpl |  Obj  Depth IntInf | Incumbent    BestBd   Gap | It/Node Time

     0     0 93679.2425    0    2 93621.4190 93679.2425  0.06%     -    0s

Explored 1 nodes (1402 simplex iterations) in 0.35 seconds (0.54 work units)
Thread count was 8 (of 8 available processors)

Solution count 2: 93621.4 93621.4 

Optimal solution found (tolerance 1.00e-04)
Best objective 9.362141896596e+04, best bound 9.362141896596e+04, gap 0.0000%
